c Result of efficient AIG-to-CNF conversion using package CNF
p cnf 585 2275
-2 3 438 440 442 0
-2 3 -438 -440 442 0
2 -442 0
2 -438 440 0
2 -3 0
2 438 -440 0
3 4 -300 0
3 -4 300 0
-3 -4 -300 0
-3 4 300 0
4 5 -82 0
4 -5 82 0
-4 -5 -82 0
-4 5 82 0
5 6 -38 0
5 -6 38 0
-5 -6 -38 0
-5 6 38 0
6 -522 -554 0
6 -554 -7 0
6 -522 -7 0
-6 522 7 0
-6 554 7 0
-6 522 554 0
7 -523 -555 0
7 -555 -8 0
7 -523 -8 0
-7 523 8 0
-7 555 8 0
-7 523 555 0
8 -524 -556 0
8 -556 -9 0
8 -524 -9 0
-8 524 9 0
-8 556 9 0
-8 524 556 0
9 -525 -557 0
9 -557 -10 0
9 -525 -10 0
-9 525 10 0
-9 557 10 0
-9 525 557 0
10 -526 -558 0
10 -558 -11 0
10 -526 -11 0
-10 526 11 0
-10 558 11 0
-10 526 558 0
11 -527 -559 0
11 -559 -12 0
11 -527 -12 0
-11 527 12 0
-11 559 12 0
-11 527 559 0
12 -528 -560 0
12 -560 -13 0
12 -528 -13 0
-12 528 13 0
-12 560 13 0
-12 528 560 0
13 -529 -561 0
13 -561 -14 0
13 -529 -14 0
-13 529 14 0
-13 561 14 0
-13 529 561 0
14 -530 -562 0
14 -562 -15 0
14 -530 -15 0
-14 530 15 0
-14 562 15 0
-14 530 562 0
15 -531 -563 0
15 -563 -16 0
15 -531 -16 0
-15 531 16 0
-15 563 16 0
-15 531 563 0
16 -532 -564 0
16 -564 -17 0
16 -532 -17 0
-16 532 17 0
-16 564 17 0
-16 532 564 0
17 -533 -565 0
17 -565 -18 0
17 -533 -18 0
-17 533 18 0
-17 565 18 0
-17 533 565 0
18 -534 -566 0
18 -566 -19 0
18 -534 -19 0
-18 534 19 0
-18 566 19 0
-18 534 566 0
19 -535 -567 0
19 -567 -20 0
19 -535 -20 0
-19 535 20 0
-19 567 20 0
-19 535 567 0
20 -536 -568 0
20 -568 -21 0
20 -536 -21 0
-20 536 21 0
-20 568 21 0
-20 536 568 0
21 -537 -569 0
21 -569 -22 0
21 -537 -22 0
-21 537 22 0
-21 569 22 0
-21 537 569 0
22 -538 -570 0
22 -570 -23 0
22 -538 -23 0
-22 538 23 0
-22 570 23 0
-22 538 570 0
23 -539 -571 0
23 -571 -24 0
23 -539 -24 0
-23 539 24 0
-23 571 24 0
-23 539 571 0
24 -540 -572 0
24 -572 -25 0
24 -540 -25 0
-24 540 25 0
-24 572 25 0
-24 540 572 0
25 -541 -573 0
25 -573 -26 0
25 -541 -26 0
-25 541 26 0
-25 573 26 0
-25 541 573 0
26 -542 -574 0
26 -574 -27 0
26 -542 -27 0
-26 542 27 0
-26 574 27 0
-26 542 574 0
27 -543 -575 0
27 -575 -28 0
27 -543 -28 0
-27 543 28 0
-27 575 28 0
-27 543 575 0
28 -544 -576 0
28 -576 -29 0
28 -544 -29 0
-28 544 29 0
-28 576 29 0
-28 544 576 0
29 -545 -577 0
29 -577 -30 0
29 -545 -30 0
-29 545 30 0
-29 577 30 0
-29 545 577 0
30 -546 -578 0
30 -578 -31 0
30 -546 -31 0
-30 546 31 0
-30 578 31 0
-30 546 578 0
31 -547 -579 0
31 -579 -32 0
31 -547 -32 0
-31 547 32 0
-31 579 32 0
-31 547 579 0
32 -548 -580 0
32 -580 -33 0
32 -548 -33 0
-32 548 33 0
-32 580 33 0
-32 548 580 0
33 -549 -581 0
33 -581 -34 0
33 -549 -34 0
-33 549 34 0
-33 581 34 0
-33 549 581 0
34 -550 -582 0
34 -582 -35 0
34 -550 -35 0
-34 550 35 0
-34 582 35 0
-34 550 582 0
35 -551 -36 0
35 -583 -36 0
-35 36 0
-35 551 583 0
-36 551 37 0
-36 583 37 0
36 -37 0
36 -551 -583 0
37 -552 -584 0
-37 552 0
-37 584 0
38 -553 39 0
38 553 -39 0
-38 553 39 0
-38 -553 -39 0
-39 521 40 0
39 -521 0
39 -40 0
40 548 -41 56 0
40 -548 56 -67 0
-40 -56 0
-40 -548 67 0
-40 548 41 0
41 549 -42 0
41 -549 -49 0
-41 -549 49 0
-41 549 42 0
42 550 -43 0
42 -550 -46 0
-42 -550 46 0
-42 550 43 0
43 -551 -44 0
43 551 -45 0
-43 -551 44 0
-43 551 45 0
44 552 -555 0
44 -552 -556 0
-44 -552 556 0
-44 552 555 0
-45 -552 554 0
-45 552 553 0
45 552 -553 0
45 -552 -554 0
46 551 -47 0
46 -551 -48 0
-46 -551 48 0
-46 551 47 0
47 552 -557 0
47 -552 -558 0
-47 -552 558 0
-47 552 557 0
48 552 -559 0
48 -552 -560 0
-48 -552 560 0
-48 552 559 0
49 550 -50 0
49 -550 -53 0
-49 -550 53 0
-49 550 50 0
50 551 -51 0
50 -551 -52 0
-50 -551 52 0
-50 551 51 0
51 552 -561 0
51 -552 -562 0
-51 -552 562 0
-51 552 561 0
52 552 -563 0
52 -552 -564 0
-52 -552 564 0
-52 552 563 0
53 551 -54 0
53 -551 -55 0
-53 -551 55 0
-53 551 54 0
54 552 -565 0
54 -552 -566 0
-54 -552 566 0
-54 552 565 0
55 552 -567 0
55 -552 -568 0
-55 -552 568 0
-55 552 567 0
-56 57 63 65 66 0
56 -66 0
56 -57 0
56 -65 0
56 -63 0
-57 535 537 58 60 0
57 -535 0
57 -60 0
57 -58 0
57 -537 0
-58 527 533 534 59 0
58 -59 0
58 -534 0
58 -527 0
58 -533 0
-59 531 532 538 0
59 -531 0
59 -538 0
59 -532 0
-60 528 529 530 61 0
60 -61 0
60 -530 0
60 -528 0
60 -529 0
-61 541 544 547 62 0
61 -62 0
61 -547 0
61 -541 0
61 -544 0
-62 542 543 0
62 -542 0
62 -543 0
-63 539 545 546 64 0
63 -64 0
63 -546 0
63 -539 0
63 -545 0
-64 526 536 0
64 -526 0
64 -536 0
-65 522 540 0
65 -522 0
65 -540 0
-66 523 524 525 0
66 -523 0
66 -525 0
66 -524 0
67 549 -68 0
67 -549 -75 0
-67 -549 75 0
-67 549 68 0
68 550 -69 0
68 -550 -72 0
-68 -550 72 0
-68 550 69 0
69 551 -70 0
69 -551 -71 0
-69 -551 71 0
-69 551 70 0
70 552 -569 0
70 -552 -570 0
-70 -552 570 0
-70 552 569 0
71 552 -571 0
71 -552 -572 0
-71 -552 572 0
-71 552 571 0
72 551 -73 0
72 -551 -74 0
-72 -551 74 0
-72 551 73 0
73 552 -573 0
73 -552 -574 0
-73 -552 574 0
-73 552 573 0
74 552 -575 0
74 -552 -576 0
-74 -552 576 0
-74 552 575 0
75 550 -76 0
75 -550 -79 0
-75 -550 79 0
-75 550 76 0
76 551 -77 0
76 -551 -78 0
-76 -551 78 0
-76 551 77 0
77 552 -577 0
77 -552 -578 0
-77 -552 578 0
-77 552 577 0
78 552 -579 0
78 -552 -580 0
-78 -552 580 0
-78 552 579 0
79 551 -80 0
79 -551 -81 0
-79 -551 81 0
-79 551 80 0
80 552 -581 0
80 -552 -582 0
-80 -552 582 0
-80 552 581 0
-81 -552 584 0
-81 552 583 0
81 552 -583 0
81 -552 -584 0
82 -83 -116 0
82 -83 -114 0
82 -114 -116 0
-82 114 116 0
-82 83 116 0
-82 83 114 0
83 -548 84 -100 0
83 548 84 -85 0
-83 -84 0
-83 -548 100 0
-83 548 85 0
-84 521 56 0
84 -521 0
84 -56 0
-85 549 86 0
-85 -549 93 0
85 -549 -93 0
85 549 -86 0
-86 550 87 0
-86 -550 90 0
86 -550 -90 0
86 550 -87 0
-87 551 89 0
-87 -551 88 0
87 -551 -88 0
87 551 -89 0
88 552 -556 0
88 -552 -557 0
-88 -552 557 0
-88 552 556 0
89 552 -554 0
89 -552 -555 0
-89 -552 555 0
-89 552 554 0
90 551 -91 0
90 -551 -92 0
-90 -551 92 0
-90 551 91 0
91 552 -558 0
91 -552 -559 0
-91 -552 559 0
-91 552 558 0
92 552 -560 0
92 -552 -561 0
-92 -552 561 0
-92 552 560 0
93 550 -94 0
93 -550 -97 0
-93 -550 97 0
-93 550 94 0
94 551 -95 0
94 -551 -96 0
-94 -551 96 0
-94 551 95 0
95 552 -562 0
95 -552 -563 0
-95 -552 563 0
-95 552 562 0
96 552 -564 0
96 -552 -565 0
-96 -552 565 0
-96 552 564 0
97 551 -98 0
97 -551 -99 0
-97 -551 99 0
-97 551 98 0
98 552 -566 0
98 -552 -567 0
-98 -552 567 0
-98 552 566 0
99 552 -568 0
99 -552 -569 0
-99 -552 569 0
-99 552 568 0
100 549 -101 0
100 -549 -108 0
-100 -549 108 0
-100 549 101 0
101 550 -102 0
101 -550 -105 0
-101 -550 105 0
-101 550 102 0
102 551 -103 0
102 -551 -104 0
-102 -551 104 0
-102 551 103 0
103 552 -570 0
103 -552 -571 0
-103 -552 571 0
-103 552 570 0
104 552 -572 0
104 -552 -573 0
-104 -552 573 0
-104 552 572 0
105 551 -106 0
105 -551 -107 0
-105 -551 107 0
-105 551 106 0
106 552 -574 0
106 -552 -575 0
-106 -552 575 0
-106 552 574 0
107 552 -576 0
107 -552 -577 0
-107 -552 577 0
-107 552 576 0
108 550 -109 0
108 -550 -112 0
-108 -550 112 0
-108 550 109 0
109 551 -110 0
109 -551 -111 0
-109 -551 111 0
-109 551 110 0
110 552 -578 0
110 -552 -579 0
-110 -552 579 0
-110 552 578 0
111 552 -580 0
111 -552 -581 0
-111 -552 581 0
-111 552 580 0
112 551 -113 0
112 -551 552 -584 0
-112 -551 -552 0
-112 551 113 0
-112 -551 584 0
113 552 -582 0
113 -552 -583 0
-113 -552 583 0
-113 552 582 0
-114 -7 -115 0
-114 7 115 0
114 7 -115 0
114 -7 115 0
115 522 -554 0
115 -522 554 0
-115 -522 -554 0
-115 522 554 0
116 -117 -134 0
116 -117 -132 0
116 -132 -134 0
-116 132 134 0
-116 117 134 0
-116 117 132 0
117 -548 84 -125 0
117 548 84 -118 0
-117 -84 0
-117 -548 125 0
-117 548 118 0
-118 549 119 0
-118 -549 122 0
118 -549 -122 0
118 549 -119 0
-119 550 120 0
-119 -550 121 0
119 -550 -121 0
119 550 -120 0
-120 -551 47 0
-120 551 44 0
120 551 -44 0
120 -551 -47 0
121 551 -48 0
121 -551 -51 0
-121 -551 51 0
-121 551 48 0
122 550 -123 0
122 -550 -124 0
-122 -550 124 0
-122 550 123 0
123 551 -52 0
123 -551 -54 0
-123 -551 54 0
-123 551 52 0
124 551 -55 0
124 -551 -70 0
-124 -551 70 0
-124 551 55 0
125 549 -126 0
125 -549 -129 0
-125 -549 129 0
-125 549 126 0
126 550 -127 0
126 -550 -128 0
-126 -550 128 0
-126 550 127 0
127 551 -71 0
127 -551 -73 0
-127 -551 73 0
-127 551 71 0
128 551 -74 0
128 -551 -77 0
-128 -551 77 0
-128 551 74 0
129 550 -130 0
129 -550 -131 0
-129 -550 131 0
-129 550 130 0
130 551 -78 0
130 -551 -80 0
-130 -551 80 0
-130 551 78 0
131 551 -552 -584 0
131 551 552 -583 0
-131 -551 0
-131 -552 584 0
-131 552 583 0
-132 -8 -133 0
-132 8 133 0
132 8 -133 0
132 -8 133 0
133 523 -555 0
133 -523 555 0
-133 -523 -555 0
-133 523 555 0
134 -135 -152 0
134 -135 -150 0
134 -150 -152 0
-134 150 152 0
-134 135 152 0
-134 135 150 0
135 -548 84 -143 0
135 548 84 -136 0
-135 -84 0
-135 -548 143 0
-135 548 136 0
-136 549 137 0
-136 -549 140 0
136 -549 -140 0
136 549 -137 0
-137 550 138 0
-137 -550 139 0
137 -550 -139 0
137 550 -138 0
-138 -551 91 0
-138 551 88 0
138 551 -88 0
138 -551 -91 0
139 551 -92 0
139 -551 -95 0
-139 -551 95 0
-139 551 92 0
140 550 -141 0
140 -550 -142 0
-140 -550 142 0
-140 550 141 0
141 551 -96 0
141 -551 -98 0
-141 -551 98 0
-141 551 96 0
142 551 -99 0
142 -551 -103 0
-142 -551 103 0
-142 551 99 0
143 549 -144 0
143 -549 -147 0
-143 -549 147 0
-143 549 144 0
144 550 -145 0
144 -550 -146 0
-144 -550 146 0
-144 550 145 0
145 551 -104 0
145 -551 -106 0
-145 -551 106 0
-145 551 104 0
146 551 -107 0
146 -551 -110 0
-146 -551 110 0
-146 551 107 0
147 550 -148 0
147 -550 -149 0
-147 -550 149 0
-147 550 148 0
148 551 -111 0
148 -551 -113 0
-148 -551 113 0
-148 551 111 0
149 551 552 -584 0
-149 584 0
-149 -552 0
-149 -551 0
-150 -9 -151 0
-150 9 151 0
150 9 -151 0
150 -9 151 0
151 524 -556 0
151 -524 556 0
-151 -524 -556 0
-151 524 556 0
152 -153 -162 0
152 -153 -160 0
152 -160 -162 0
-152 160 162 0
-152 153 162 0
-152 153 160 0
153 -548 84 -157 0
153 548 84 -154 0
-153 -84 0
-153 -548 157 0
-153 548 154 0
-154 549 155 0
-154 -549 156 0
154 -549 -156 0
154 549 -155 0
-155 -550 50 0
-155 550 46 0
155 550 -46 0
155 -550 -50 0
156 550 -53 0
156 -550 -69 0
-156 -550 69 0
-156 550 53 0
157 549 -158 0
157 -549 -159 0
-157 -549 159 0
-157 549 158 0
158 550 -72 0
158 -550 -76 0
-158 -550 76 0
-158 550 72 0
159 550 -79 0
-159 -550 0
-159 79 0
-160 -10 -161 0
-160 10 161 0
160 10 -161 0
160 -10 161 0
161 525 -557 0
161 -525 557 0
-161 -525 -557 0
-161 525 557 0
162 -163 -172 0
162 -163 -170 0
162 -170 -172 0
-162 170 172 0
-162 163 172 0
-162 163 170 0
163 -548 84 -167 0
163 548 84 -164 0
-163 -84 0
-163 -548 167 0
-163 548 164 0
-164 549 165 0
-164 -549 166 0
164 -549 -166 0
164 549 -165 0
-165 -550 94 0
-165 550 90 0
165 550 -90 0
165 -550 -94 0
166 550 -97 0
166 -550 -102 0
-166 -550 102 0
-166 550 97 0
167 549 -168 0
167 -549 -169 0
-167 -549 169 0
-167 549 168 0
168 550 -105 0
168 -550 -109 0
-168 -550 109 0
-168 550 105 0
169 550 -112 0
-169 -550 0
-169 112 0
-170 -11 -171 0
-170 11 171 0
170 11 -171 0
170 -11 171 0
171 526 -558 0
171 -526 558 0
-171 -526 -558 0
-171 526 558 0
172 -173 -182 0
172 -173 -180 0
172 -180 -182 0
-172 180 182 0
-172 173 182 0
-172 173 180 0
173 -548 84 -177 0
173 548 84 -174 0
-173 -84 0
-173 -548 177 0
-173 548 174 0
-174 549 175 0
-174 -549 176 0
174 -549 -176 0
174 549 -175 0
-175 -550 123 0
-175 550 121 0
175 550 -121 0
175 -550 -123 0
176 550 -124 0
176 -550 -127 0
-176 -550 127 0
-176 550 124 0
177 549 -178 0
177 -549 -179 0
-177 -549 179 0
-177 549 178 0
178 550 -128 0
178 -550 -130 0
-178 -550 130 0
-178 550 128 0
179 550 -131 0
-179 -550 0
-179 131 0
-180 -12 -181 0
-180 12 181 0
180 12 -181 0
180 -12 181 0
181 527 -559 0
181 -527 559 0
-181 -527 -559 0
-181 527 559 0
182 -183 -192 0
182 -183 -190 0
182 -190 -192 0
-182 190 192 0
-182 183 192 0
-182 183 190 0
183 -548 84 -187 0
183 548 84 -184 0
-183 -84 0
-183 -548 187 0
-183 548 184 0
-184 549 185 0
-184 -549 186 0
184 -549 -186 0
184 549 -185 0
-185 -550 141 0
-185 550 139 0
185 550 -139 0
185 -550 -141 0
186 550 -142 0
186 -550 -145 0
-186 -550 145 0
-186 550 142 0
187 549 -188 0
187 -549 -189 0
-187 -549 189 0
-187 549 188 0
188 550 -146 0
188 -550 -148 0
-188 -550 148 0
-188 550 146 0
189 550 551 552 -584 0
-189 584 0
-189 -552 0
-189 -550 0
-189 -551 0
-190 -13 -191 0
-190 13 191 0
190 13 -191 0
190 -13 191 0
191 528 -560 0
191 -528 560 0
-191 -528 -560 0
-191 528 560 0
192 -193 -198 0
192 -193 -196 0
192 -196 -198 0
-192 196 198 0
-192 193 198 0
-192 193 196 0
193 -548 84 -195 0
193 548 84 -194 0
-193 -84 0
-193 -548 195 0
-193 548 194 0
194 549 -49 0
194 -549 -68 0
-194 -549 68 0
-194 549 49 0
195 549 -75 0
-195 -549 0
-195 75 0
-196 -14 -197 0
-196 14 197 0
196 14 -197 0
196 -14 197 0
197 529 -561 0
197 -529 561 0
-197 -529 -561 0
-197 529 561 0
198 -199 -204 0
198 -199 -202 0
198 -202 -204 0
-198 202 204 0
-198 199 204 0
-198 199 202 0
199 -548 84 -201 0
199 548 84 -200 0
-199 -84 0
-199 -548 201 0
-199 548 200 0
200 549 -93 0
200 -549 -101 0
-200 -549 101 0
-200 549 93 0
201 549 -108 0
-201 -549 0
-201 108 0
-202 -15 -203 0
-202 15 203 0
202 15 -203 0
202 -15 203 0
203 530 -562 0
203 -530 562 0
-203 -530 -562 0
-203 530 562 0
204 -205 -210 0
204 -205 -208 0
204 -208 -210 0
-204 208 210 0
-204 205 210 0
-204 205 208 0
205 -548 84 -207 0
205 548 84 -206 0
-205 -84 0
-205 -548 207 0
-205 548 206 0
206 549 -122 0
206 -549 -126 0
-206 -549 126 0
-206 549 122 0
207 549 -129 0
-207 -549 0
-207 129 0
-208 -16 -209 0
-208 16 209 0
208 16 -209 0
208 -16 209 0
209 531 -563 0
209 -531 563 0
-209 -531 -563 0
-209 531 563 0
210 -211 -216 0
210 -211 -214 0
210 -214 -216 0
-210 214 216 0
-210 211 216 0
-210 211 214 0
211 -548 84 -213 0
211 548 84 -212 0
-211 -84 0
-211 -548 213 0
-211 548 212 0
212 549 -140 0
212 -549 -144 0
-212 -549 144 0
-212 549 140 0
213 549 -147 0
-213 -549 0
-213 147 0
-214 -17 -215 0
-214 17 215 0
214 17 -215 0
214 -17 215 0
215 532 -564 0
215 -532 564 0
-215 -532 -564 0
-215 532 564 0
216 -217 -222 0
216 -217 -220 0
216 -220 -222 0
-216 220 222 0
-216 217 222 0
-216 217 220 0
217 -548 84 -219 0
217 548 84 -218 0
-217 -84 0
-217 -548 219 0
-217 548 218 0
218 549 -156 0
218 -549 -158 0
-218 -549 158 0
-218 549 156 0
219 549 -159 0
-219 -549 0
-219 159 0
-220 -18 -221 0
-220 18 221 0
220 18 -221 0
220 -18 221 0
221 533 -565 0
221 -533 565 0
-221 -533 -565 0
-221 533 565 0
222 -223 -228 0
222 -223 -226 0
222 -226 -228 0
-222 226 228 0
-222 223 228 0
-222 223 226 0
223 -548 84 -225 0
223 548 84 -224 0
-223 -84 0
-223 -548 225 0
-223 548 224 0
224 549 -166 0
224 -549 -168 0
-224 -549 168 0
-224 549 166 0
225 549 -169 0
-225 -549 0
-225 169 0
-226 -19 -227 0
-226 19 227 0
226 19 -227 0
226 -19 227 0
227 534 -566 0
227 -534 566 0
-227 -534 -566 0
-227 534 566 0
228 -229 -234 0
228 -229 -232 0
228 -232 -234 0
-228 232 234 0
-228 229 234 0
-228 229 232 0
229 -548 84 -231 0
229 548 84 -230 0
-229 -84 0
-229 -548 231 0
-229 548 230 0
230 549 -176 0
230 -549 -178 0
-230 -549 178 0
-230 549 176 0
231 549 -179 0
-231 -549 0
-231 179 0
-232 -20 -233 0
-232 20 233 0
232 20 -233 0
232 -20 233 0
233 535 -567 0
233 -535 567 0
-233 -535 -567 0
-233 535 567 0
234 -235 -240 0
234 -235 -238 0
234 -238 -240 0
-234 238 240 0
-234 235 240 0
-234 235 238 0
235 -548 84 -237 0
235 548 84 -236 0
-235 -84 0
-235 -548 237 0
-235 548 236 0
236 549 -186 0
236 -549 -188 0
-236 -549 188 0
-236 549 186 0
237 549 -189 0
-237 -549 0
-237 189 0
-238 -21 -239 0
-238 21 239 0
238 21 -239 0
238 -21 239 0
239 536 -568 0
239 -536 568 0
-239 -536 -568 0
-239 536 568 0
240 -241 -245 0
240 -241 -243 0
240 -243 -245 0
-240 243 245 0
-240 241 245 0
-240 241 243 0
241 -67 242 0
-241 67 0
-241 -242 0
-242 548 84 0
242 -548 0
242 -84 0
-243 -22 -244 0
-243 22 244 0
243 22 -244 0
243 -22 244 0
244 537 -569 0
244 -537 569 0
-244 -537 -569 0
-244 537 569 0
245 -246 -249 0
245 -246 -247 0
245 -247 -249 0
-245 247 249 0
-245 246 249 0
-245 246 247 0
246 -100 242 0
-246 100 0
-246 -242 0
-247 -23 -248 0
-247 23 248 0
247 23 -248 0
247 -23 248 0
248 538 -570 0
248 -538 570 0
-248 -538 -570 0
-248 538 570 0
249 -250 -253 0
249 -250 -251 0
249 -251 -253 0
-249 251 253 0
-249 250 253 0
-249 250 251 0
250 -125 242 0
-250 125 0
-250 -242 0
-251 -24 -252 0
-251 24 252 0
251 24 -252 0
251 -24 252 0
252 539 -571 0
252 -539 571 0
-252 -539 -571 0
-252 539 571 0
253 -254 -257 0
253 -254 -255 0
253 -255 -257 0
-253 255 257 0
-253 254 257 0
-253 254 255 0
254 -143 242 0
-254 143 0
-254 -242 0
-255 -25 -256 0
-255 25 256 0
255 25 -256 0
255 -25 256 0
256 540 -572 0
256 -540 572 0
-256 -540 -572 0
-256 540 572 0
257 -258 -261 0
257 -258 -259 0
257 -259 -261 0
-257 259 261 0
-257 258 261 0
-257 258 259 0
258 -157 242 0
-258 157 0
-258 -242 0
-259 -26 -260 0
-259 26 260 0
259 26 -260 0
259 -26 260 0
260 541 -573 0
260 -541 573 0
-260 -541 -573 0
-260 541 573 0
261 -262 -265 0
261 -262 -263 0
261 -263 -265 0
-261 263 265 0
-261 262 265 0
-261 262 263 0
262 -167 242 0
-262 167 0
-262 -242 0
-263 -27 -264 0
-263 27 264 0
263 27 -264 0
263 -27 264 0
264 542 -574 0
264 -542 574 0
-264 -542 -574 0
-264 542 574 0
265 -266 -269 0
265 -266 -267 0
265 -267 -269 0
-265 267 269 0
-265 266 269 0
-265 266 267 0
266 -177 242 0
-266 177 0
-266 -242 0
-267 -28 -268 0
-267 28 268 0
267 28 -268 0
267 -28 268 0
268 543 -575 0
268 -543 575 0
-268 -543 -575 0
-268 543 575 0
269 -270 -273 0
269 -270 -271 0
269 -271 -273 0
-269 271 273 0
-269 270 273 0
-269 270 271 0
270 -187 242 0
-270 187 0
-270 -242 0
-271 -29 -272 0
-271 29 272 0
271 29 -272 0
271 -29 272 0
272 544 -576 0
272 -544 576 0
-272 -544 -576 0
-272 544 576 0
273 -274 -277 0
273 -274 -275 0
273 -275 -277 0
-273 275 277 0
-273 274 277 0
-273 274 275 0
274 -195 242 0
-274 195 0
-274 -242 0
-275 -30 -276 0
-275 30 276 0
275 30 -276 0
275 -30 276 0
276 545 -577 0
276 -545 577 0
-276 -545 -577 0
-276 545 577 0
277 -278 -281 0
277 -278 -279 0
277 -279 -281 0
-277 279 281 0
-277 278 281 0
-277 278 279 0
278 -201 242 0
-278 201 0
-278 -242 0
-279 -31 -280 0
-279 31 280 0
279 31 -280 0
279 -31 280 0
280 546 -578 0
280 -546 578 0
-280 -546 -578 0
-280 546 578 0
281 -282 -283 0
281 -283 -285 0
281 -282 -285 0
-281 282 285 0
-281 283 285 0
-281 282 283 0
282 -207 242 0
-282 207 0
-282 -242 0
283 32 -284 0
283 -32 284 0
-283 -32 -284 0
-283 32 284 0
284 547 -579 0
284 -547 579 0
-284 -547 -579 0
-284 547 579 0
285 -286 -287 0
285 -287 -289 0
285 -286 -289 0
-285 286 289 0
-285 287 289 0
-285 286 287 0
286 -213 242 0
-286 213 0
-286 -242 0
287 33 -288 0
287 -33 288 0
-287 -33 -288 0
-287 33 288 0
288 548 -580 0
288 -548 580 0
-288 -548 -580 0
-288 548 580 0
289 -290 -291 0
289 -291 -293 0
289 -290 -293 0
-289 290 293 0
-289 291 293 0
-289 290 291 0
290 -219 242 0
-290 219 0
-290 -242 0
291 34 -292 0
291 -34 292 0
-291 -34 -292 0
-291 34 292 0
292 549 -581 0
292 -549 581 0
-292 -549 -581 0
-292 549 581 0
293 -294 -295 0
293 -294 -297 -298 0
293 -295 -297 -298 0
-293 295 298 0
-293 294 297 0
-293 295 297 0
-293 294 295 0
-293 294 298 0
294 -225 242 0
-294 225 0
-294 -242 0
295 35 -296 0
295 -35 296 0
-295 -35 -296 0
-295 35 296 0
296 550 -582 0
296 -550 582 0
-296 -550 -582 0
-296 550 582 0
297 -231 242 0
-297 231 0
-297 -242 0
298 37 -299 0
298 -37 299 0
-298 -37 -299 0
-298 37 299 0
299 551 -583 0
299 -551 583 0
-299 -551 -583 0
-299 551 583 0
300 301 -332 0
300 -301 332 0
-300 -301 -332 0
-300 301 332 0
301 38 -302 0
301 -38 302 0
-301 -38 -302 0
-301 38 302 0
302 -554 -83 0
302 -83 -303 0
302 -554 -303 0
-302 554 303 0
-302 83 303 0
-302 554 83 0
303 -555 -117 0
303 -117 -304 0
303 -555 -304 0
-303 555 304 0
-303 117 304 0
-303 555 117 0
304 -556 -135 0
304 -135 -305 0
304 -556 -305 0
-304 556 305 0
-304 135 305 0
-304 556 135 0
305 -557 -153 0
305 -153 -306 0
305 -557 -306 0
-305 557 306 0
-305 153 306 0
-305 557 153 0
306 -558 -163 0
306 -163 -307 0
306 -558 -307 0
-306 558 307 0
-306 163 307 0
-306 558 163 0
307 -559 -173 0
307 -173 -308 0
307 -559 -308 0
-307 559 308 0
-307 173 308 0
-307 559 173 0
308 -560 -183 0
308 -183 -309 0
308 -560 -309 0
-308 560 309 0
-308 183 309 0
-308 560 183 0
309 -561 -193 0
309 -193 -310 0
309 -561 -310 0
-309 561 310 0
-309 193 310 0
-309 561 193 0
310 -562 -199 0
310 -199 -311 0
310 -562 -311 0
-310 562 311 0
-310 199 311 0
-310 562 199 0
311 -563 -205 0
311 -205 -312 0
311 -563 -312 0
-311 563 312 0
-311 205 312 0
-311 563 205 0
312 -564 -211 0
312 -211 -313 0
312 -564 -313 0
-312 564 313 0
-312 211 313 0
-312 564 211 0
313 -565 -217 0
313 -217 -314 0
313 -565 -314 0
-313 565 314 0
-313 217 314 0
-313 565 217 0
314 -566 -223 0
314 -223 -315 0
314 -566 -315 0
-314 566 315 0
-314 223 315 0
-314 566 223 0
315 -567 -229 0
315 -229 -316 0
315 -567 -316 0
-315 567 316 0
-315 229 316 0
-315 567 229 0
316 -568 -235 0
316 -235 -317 0
316 -568 -317 0
-316 568 317 0
-316 235 317 0
-316 568 235 0
317 -569 -241 0
317 -241 -318 0
317 -569 -318 0
-317 569 318 0
-317 241 318 0
-317 569 241 0
318 -570 -246 0
318 -246 -319 0
318 -570 -319 0
-318 570 319 0
-318 246 319 0
-318 570 246 0
319 -571 -250 0
319 -250 -320 0
319 -571 -320 0
-319 571 320 0
-319 250 320 0
-319 571 250 0
320 -572 -254 0
320 -254 -321 0
320 -572 -321 0
-320 572 321 0
-320 254 321 0
-320 572 254 0
321 -573 -258 0
321 -258 -322 0
321 -573 -322 0
-321 573 322 0
-321 258 322 0
-321 573 258 0
322 -574 -262 0
322 -262 -323 0
322 -574 -323 0
-322 574 323 0
-322 262 323 0
-322 574 262 0
323 -575 -266 0
323 -266 -324 0
323 -575 -324 0
-323 575 324 0
-323 266 324 0
-323 575 266 0
324 -576 -270 0
324 -270 -325 0
324 -576 -325 0
-324 576 325 0
-324 270 325 0
-324 576 270 0
325 -577 -274 0
325 -274 -326 0
325 -577 -326 0
-325 577 326 0
-325 274 326 0
-325 577 274 0
326 -578 -278 0
326 -278 -327 0
326 -578 -327 0
-326 578 327 0
-326 278 327 0
-326 578 278 0
327 -579 -282 0
327 -282 -328 0
327 -579 -328 0
-327 579 328 0
-327 282 328 0
-327 579 282 0
328 -580 -286 0
328 -286 -329 0
328 -580 -329 0
-328 580 329 0
-328 286 329 0
-328 580 286 0
329 -581 -290 0
329 -290 -330 0
329 -581 -330 0
-329 581 330 0
-329 290 330 0
-329 581 290 0
330 -582 -294 0
330 -294 -331 0
330 -582 -331 0
-330 582 331 0
-330 294 331 0
-330 582 294 0
331 -583 -297 0
-331 583 0
-331 297 0
332 -333 -334 0
332 -334 -336 0
-332 334 0
-332 333 336 0
333 -522 -554 0
-333 522 0
-333 554 0
-334 522 -303 -335 0
-334 522 303 335 0
334 -522 0
334 -303 335 0
334 303 -335 0
335 554 -83 0
335 -554 83 0
-335 -554 -83 0
-335 554 83 0
336 -337 -338 0
336 -338 -340 0
-336 338 0
-336 337 340 0
337 -523 -555 0
-337 523 0
-337 555 0
-338 523 -304 -339 0
-338 523 304 339 0
338 -523 0
338 -304 339 0
338 304 -339 0
339 555 -117 0
339 -555 117 0
-339 -555 -117 0
-339 555 117 0
340 -341 -342 0
340 -342 -344 0
-340 342 0
-340 341 344 0
341 -524 -556 0
-341 524 0
-341 556 0
-342 524 -305 -343 0
-342 524 305 343 0
342 -524 0
342 -305 343 0
342 305 -343 0
343 556 -135 0
343 -556 135 0
-343 -556 -135 0
-343 556 135 0
344 -345 -346 0
344 -346 -348 0
-344 346 0
-344 345 348 0
345 -525 -557 0
-345 525 0
-345 557 0
-346 525 -306 -347 0
-346 525 306 347 0
346 -525 0
346 -306 347 0
346 306 -347 0
347 557 -153 0
347 -557 153 0
-347 -557 -153 0
-347 557 153 0
348 -349 -350 0
348 -350 -352 0
-348 350 0
-348 349 352 0
349 -526 -558 0
-349 526 0
-349 558 0
-350 526 -307 -351 0
-350 526 307 351 0
350 -526 0
350 -307 351 0
350 307 -351 0
351 558 -163 0
351 -558 163 0
-351 -558 -163 0
-351 558 163 0
352 -353 -354 0
352 -354 -356 0
-352 354 0
-352 353 356 0
353 -527 -559 0
-353 527 0
-353 559 0
-354 527 -308 -355 0
-354 527 308 355 0
354 -527 0
354 -308 355 0
354 308 -355 0
355 559 -173 0
355 -559 173 0
-355 -559 -173 0
-355 559 173 0
356 -357 -358 0
356 -358 -360 0
-356 358 0
-356 357 360 0
357 -528 -560 0
-357 528 0
-357 560 0
-358 528 -309 -359 0
-358 528 309 359 0
358 -528 0
358 -309 359 0
358 309 -359 0
359 560 -183 0
359 -560 183 0
-359 -560 -183 0
-359 560 183 0
360 -361 -362 0
360 -362 -364 0
-360 362 0
-360 361 364 0
361 -529 -561 0
-361 529 0
-361 561 0
-362 529 -310 -363 0
-362 529 310 363 0
362 -529 0
362 -310 363 0
362 310 -363 0
363 561 -193 0
363 -561 193 0
-363 -561 -193 0
-363 561 193 0
364 -365 -366 0
364 -366 -368 0
-364 366 0
-364 365 368 0
365 -530 -562 0
-365 530 0
-365 562 0
-366 530 -311 -367 0
-366 530 311 367 0
366 -530 0
366 -311 367 0
366 311 -367 0
367 562 -199 0
367 -562 199 0
-367 -562 -199 0
-367 562 199 0
368 -369 -370 0
368 -370 -372 0
-368 370 0
-368 369 372 0
369 -531 -563 0
-369 531 0
-369 563 0
-370 531 -312 -371 0
-370 531 312 371 0
370 -531 0
370 -312 371 0
370 312 -371 0
371 563 -205 0
371 -563 205 0
-371 -563 -205 0
-371 563 205 0
372 -373 -374 0
372 -374 -376 0
-372 374 0
-372 373 376 0
373 -532 -564 0
-373 532 0
-373 564 0
-374 532 -313 -375 0
-374 532 313 375 0
374 -532 0
374 -313 375 0
374 313 -375 0
375 564 -211 0
375 -564 211 0
-375 -564 -211 0
-375 564 211 0
376 -377 -378 0
376 -378 -380 0
-376 378 0
-376 377 380 0
377 -533 -565 0
-377 533 0
-377 565 0
-378 533 -314 -379 0
-378 533 314 379 0
378 -533 0
378 -314 379 0
378 314 -379 0
379 565 -217 0
379 -565 217 0
-379 -565 -217 0
-379 565 217 0
380 -381 -382 0
380 -382 -384 0
-380 382 0
-380 381 384 0
381 -534 -566 0
-381 534 0
-381 566 0
-382 534 -315 -383 0
-382 534 315 383 0
382 -534 0
382 -315 383 0
382 315 -383 0
383 566 -223 0
383 -566 223 0
-383 -566 -223 0
-383 566 223 0
384 -385 -386 0
384 -386 -388 0
-384 386 0
-384 385 388 0
385 -535 -567 0
-385 535 0
-385 567 0
-386 535 -316 -387 0
-386 535 316 387 0
386 -535 0
386 -316 387 0
386 316 -387 0
387 567 -229 0
387 -567 229 0
-387 -567 -229 0
-387 567 229 0
388 -389 -390 0
388 -390 -392 0
-388 390 0
-388 389 392 0
389 -536 -568 0
-389 536 0
-389 568 0
-390 536 -317 -391 0
-390 536 317 391 0
390 -536 0
390 -317 391 0
390 317 -391 0
391 568 -235 0
391 -568 235 0
-391 -568 -235 0
-391 568 235 0
392 -393 -394 0
392 -394 -396 0
-392 394 0
-392 393 396 0
393 -537 -569 0
-393 537 0
-393 569 0
-394 537 -318 -395 0
-394 537 318 395 0
394 -537 0
394 -318 395 0
394 318 -395 0
395 569 -241 0
395 -569 241 0
-395 -569 -241 0
-395 569 241 0
396 -397 -398 0
396 -398 -400 0
-396 398 0
-396 397 400 0
397 -538 -570 0
-397 538 0
-397 570 0
-398 538 -319 -399 0
-398 538 319 399 0
398 -538 0
398 -319 399 0
398 319 -399 0
399 570 -246 0
399 -570 246 0
-399 -570 -246 0
-399 570 246 0
400 -401 -403 0
400 -539 -571 -401 0
-400 401 0
-400 571 403 0
-400 539 403 0
-401 539 -320 -402 0
-401 539 320 402 0
401 -539 0
401 -320 402 0
401 320 -402 0
402 571 -250 0
402 -571 250 0
-402 -571 -250 0
-402 571 250 0
403 -404 -406 0
403 -540 -572 -404 0
-403 404 0
-403 572 406 0
-403 540 406 0
-404 540 -321 -405 0
-404 540 321 405 0
404 -540 0
404 -321 405 0
404 321 -405 0
405 572 -254 0
405 -572 254 0
-405 -572 -254 0
-405 572 254 0
406 -407 -409 0
406 -541 -573 -407 0
-406 407 0
-406 573 409 0
-406 541 409 0
-407 541 -322 -408 0
-407 541 322 408 0
407 -541 0
407 -322 408 0
407 322 -408 0
408 573 -258 0
408 -573 258 0
-408 -573 -258 0
-408 573 258 0
409 -410 -412 0
409 -542 -574 -410 0
-409 410 0
-409 574 412 0
-409 542 412 0
-410 542 -323 -411 0
-410 542 323 411 0
410 -542 0
410 -323 411 0
410 323 -411 0
411 574 -262 0
411 -574 262 0
-411 -574 -262 0
-411 574 262 0
412 -413 -415 0
412 -543 -575 -413 0
-412 413 0
-412 575 415 0
-412 543 415 0
-413 543 -324 -414 0
-413 543 324 414 0
413 -543 0
413 -324 414 0
413 324 -414 0
414 575 -266 0
414 -575 266 0
-414 -575 -266 0
-414 575 266 0
415 -416 -418 0
415 -544 -576 -416 0
-415 416 0
-415 576 418 0
-415 544 418 0
-416 544 -325 -417 0
-416 544 325 417 0
416 -544 0
416 -325 417 0
416 325 -417 0
417 576 -270 0
417 -576 270 0
-417 -576 -270 0
-417 576 270 0
418 -419 -421 0
418 -545 -577 -419 0
-418 419 0
-418 577 421 0
-418 545 421 0
-419 545 -326 -420 0
-419 545 326 420 0
419 -545 0
419 -326 420 0
419 326 -420 0
420 577 -274 0
420 -577 274 0
-420 -577 -274 0
-420 577 274 0
421 -422 -424 0
421 -546 -578 -422 0
-421 422 0
-421 578 424 0
-421 546 424 0
-422 546 -327 -423 0
-422 546 327 423 0
422 -546 0
422 -327 423 0
422 327 -423 0
423 578 -278 0
423 -578 278 0
-423 -578 -278 0
-423 578 278 0
424 -425 -427 0
424 -547 -579 -425 0
-424 425 0
-424 579 427 0
-424 547 427 0
-425 547 -328 -426 0
-425 547 328 426 0
425 -547 0
425 -328 426 0
425 328 -426 0
426 579 -282 0
426 -579 282 0
-426 -579 -282 0
-426 579 282 0
427 -428 -430 0
427 -548 -580 -428 0
-427 428 0
-427 580 430 0
-427 548 430 0
-428 548 -329 -429 0
-428 548 329 429 0
428 -548 0
428 -329 429 0
428 329 -429 0
429 580 -286 0
429 -580 286 0
-429 -580 -286 0
-429 580 286 0
430 -431 -433 0
430 -549 -581 -431 0
-430 431 0
-430 581 433 0
-430 549 433 0
-431 549 -330 -432 0
-431 549 330 432 0
431 -549 0
431 -330 432 0
431 330 -432 0
432 581 -290 0
432 -581 290 0
-432 -581 -290 0
-432 581 290 0
433 -550 -435 0
433 331 -434 -435 0
433 -331 434 -435 0
-433 435 0
-433 550 -331 -434 0
-433 550 331 434 0
434 582 -294 0
434 -582 294 0
-434 -582 -294 0
-434 582 294 0
-435 436 36 0
-435 551 436 437 0
435 -436 0
435 -551 -36 0
435 -36 -437 0
436 -550 -582 0
-436 550 0
-436 582 0
-437 583 237 297 0
-437 -583 237 -297 0
-437 -583 -242 -297 0
-437 583 -242 297 0
437 583 -297 0
437 -583 297 0
437 -237 242 0
438 116 -439 0
438 -116 439 0
-438 -116 -439 0
-438 116 439 0
439 -83 114 0
439 83 -114 0
-439 83 114 0
-439 -83 -114 0
440 336 -441 0
440 -336 441 0
-440 -336 -441 0
-440 336 441 0
441 333 -334 0
-441 -333 0
-441 334 0
-442 443 445 447 452 0
-442 -443 -445 447 452 0
442 -447 0
442 443 -445 0
442 -452 0
442 -443 445 0
443 134 -444 0
443 -134 444 0
-443 -134 -444 0
-443 134 444 0
444 -117 132 0
444 117 -132 0
-444 117 132 0
-444 -117 -132 0
445 340 -446 0
445 -340 446 0
-445 -340 -446 0
-445 340 446 0
446 337 -338 0
-446 -337 0
-446 338 0
447 448 -450 0
447 -448 450 0
-447 -448 -450 0
-447 448 450 0
448 152 -449 0
448 -152 449 0
-448 -152 -449 0
-448 152 449 0
449 -135 150 0
449 135 -150 0
-449 135 150 0
-449 -135 -150 0
450 344 -451 0
450 -344 451 0
-450 -344 -451 0
-450 344 451 0
451 341 -342 0
-451 -341 0
-451 342 0
-452 453 458 460 462 0
-452 453 -458 -460 462 0
452 -462 0
452 -458 460 0
452 -453 0
452 458 -460 0
453 454 -456 0
453 -454 456 0
-453 -454 -456 0
-453 454 456 0
454 162 -455 0
454 -162 455 0
-454 -162 -455 0
-454 162 455 0
455 -153 160 0
455 153 -160 0
-455 153 160 0
-455 -153 -160 0
456 348 -457 0
456 -348 457 0
-456 -348 -457 0
-456 348 457 0
457 345 -346 0
-457 -345 0
-457 346 0
458 172 -459 0
458 -172 459 0
-458 -172 -459 0
-458 172 459 0
459 -163 170 0
459 163 -170 0
-459 163 170 0
-459 -163 -170 0
460 352 -461 0
460 -352 461 0
-460 -352 -461 0
-460 352 461 0
461 349 -350 0
-461 -349 0
-461 350 0
-462 463 468 470 472 0
-462 463 -468 -470 472 0
462 -472 0
462 -468 470 0
462 -463 0
462 468 -470 0
463 464 -466 0
463 -464 466 0
-463 -464 -466 0
-463 464 466 0
464 182 -465 0
464 -182 465 0
-464 -182 -465 0
-464 182 465 0
465 -173 180 0
465 173 -180 0
-465 173 180 0
-465 -173 -180 0
466 356 -467 0
466 -356 467 0
-466 -356 -467 0
-466 356 467 0
467 353 -354 0
-467 -353 0
-467 354 0
468 192 -469 0
468 -192 469 0
-468 -192 -469 0
-468 192 469 0
469 -183 190 0
469 183 -190 0
-469 183 190 0
-469 -183 -190 0
470 360 -471 0
470 -360 471 0
-470 -360 -471 0
-470 360 471 0
471 357 -358 0
-471 -357 0
-471 358 0
-472 473 478 480 482 0
-472 473 -478 -480 482 0
472 -482 0
472 -478 480 0
472 -473 0
472 478 -480 0
473 474 -476 0
473 -474 476 0
-473 -474 -476 0
-473 474 476 0
474 198 -475 0
474 -198 475 0
-474 -198 -475 0
-474 198 475 0
475 -193 196 0
475 193 -196 0
-475 193 196 0
-475 -193 -196 0
476 364 -477 0
476 -364 477 0
-476 -364 -477 0
-476 364 477 0
477 361 -362 0
-477 -361 0
-477 362 0
478 204 -479 0
478 -204 479 0
-478 -204 -479 0
-478 204 479 0
479 -199 202 0
479 199 -202 0
-479 199 202 0
-479 -199 -202 0
480 368 -481 0
480 -368 481 0
-480 -368 -481 0
-480 368 481 0
481 365 -366 0
-481 -365 0
-481 366 0
-482 483 488 490 492 0
-482 483 -488 -490 492 0
482 -492 0
482 -488 490 0
482 -483 0
482 488 -490 0
483 484 -486 0
483 -484 486 0
-483 -484 -486 0
-483 484 486 0
484 210 -485 0
484 -210 485 0
-484 -210 -485 0
-484 210 485 0
485 -205 208 0
485 205 -208 0
-485 205 208 0
-485 -205 -208 0
486 372 -487 0
486 -372 487 0
-486 -372 -487 0
-486 372 487 0
487 369 -370 0
-487 -369 0
-487 370 0
488 216 -489 0
488 -216 489 0
-488 -216 -489 0
-488 216 489 0
489 -211 214 0
489 211 -214 0
-489 211 214 0
-489 -211 -214 0
490 376 -491 0
490 -376 491 0
-490 -376 -491 0
-490 376 491 0
491 373 -374 0
-491 -373 0
-491 374 0
-492 493 498 500 502 0
-492 493 -498 -500 502 0
492 -502 0
492 -498 500 0
492 -493 0
492 498 -500 0
493 494 -496 0
493 -494 496 0
-493 -494 -496 0
-493 494 496 0
494 222 -495 0
494 -222 495 0
-494 -222 -495 0
-494 222 495 0
495 -217 220 0
495 217 -220 0
-495 217 220 0
-495 -217 -220 0
496 380 -497 0
496 -380 497 0
-496 -380 -497 0
-496 380 497 0
497 377 -378 0
-497 -377 0
-497 378 0
498 228 -499 0
498 -228 499 0
-498 -228 -499 0
-498 228 499 0
499 -223 226 0
499 223 -226 0
-499 223 226 0
-499 -223 -226 0
500 384 -501 0
500 -384 501 0
-500 -384 -501 0
-500 384 501 0
501 381 -382 0
-501 -381 0
-501 382 0
-502 503 508 510 512 0
-502 503 -508 -510 512 0
502 -512 0
502 -508 510 0
502 -503 0
502 508 -510 0
503 504 -506 0
503 -504 506 0
-503 -504 -506 0
-503 504 506 0
504 234 -505 0
504 -234 505 0
-504 -234 -505 0
-504 234 505 0
505 -229 232 0
505 229 -232 0
-505 229 232 0
-505 -229 -232 0
506 388 -507 0
506 -388 507 0
-506 -388 -507 0
-506 388 507 0
507 385 -386 0
-507 -385 0
-507 386 0
508 240 -509 0
508 -240 509 0
-508 -240 -509 0
-508 240 509 0
509 -235 238 0
509 235 -238 0
-509 235 238 0
-509 -235 -238 0
510 392 -511 0
510 -392 511 0
-510 -392 -511 0
-510 392 511 0
511 389 -390 0
-511 -389 0
-511 390 0
-512 513 515 -517 -519 0
-512 -513 -515 -517 -519 0
-512 513 515 517 519 0
-512 -513 -515 517 519 0
512 513 -515 0
512 -513 515 0
512 517 -519 0
512 -517 519 0
513 245 -514 0
513 -245 514 0
-513 -245 -514 0
-513 245 514 0
514 -241 243 0
514 241 -243 0
-514 241 243 0
-514 -241 -243 0
515 396 -516 0
515 -396 516 0
-515 -396 -516 0
-515 396 516 0
516 393 -394 0
-516 -393 0
-516 394 0
517 249 -518 0
517 -249 518 0
-517 -249 -518 0
-517 249 518 0
518 -246 247 0
518 246 -247 0
-518 246 247 0
-518 -246 -247 0
519 400 -520 0
519 -400 520 0
-519 -400 -520 0
-519 400 520 0
520 397 -398 0
-520 -397 0
-520 398 0
-585 0
2 0

